34 34
21
3 3 7 6
3 4 7 30
3 5 28 14
3 6 7 0
3 7 28 27
3 8 28 19
3 9 0 25
3 10 7 9
3 11 7 19
3 12 31 22
3 13 25 0
3 14 28 0
3 21 25 13
3 22 31 0
3 25 4 0
3 34 22 0
4 4 3 30
4 5 3 25
4 11 0 0
4 14 0 11
12 34 10 0
